qbf_easy_train/easy_2292_SAT.qdimacs
p cnf 19 41
a 9 3 7 0
e 1 2 4 5 6 8 10 11 12 13 14 15 16 17 18 19 0
-1 2 -3 0
1 -2 -3 0
-1 -2 3 0
1 2 3 0
6 -4 0
6 5 0
4 -5 -6 0
-7 8 -9 0
7 -8 -9 0
-7 -8 9 0
7 8 9 0
-10 -5 0
-10 -9 0
5 9 10 0
-12 -11 0
-12 4 0
11 -4 12 0
-13 10 0
-13 -12 0
-10 12 13 0
-5 15 0
5 15 0
-14 -15 -16 0
14 15 -16 0
-14 15 16 0
14 -15 16 0
17 13 0
17 -16 0
-13 16 -17 0
18 -6 0
18 17 0
6 -17 -18 0
-3 -18 -19 0
3 18 -19 0
-3 18 19 0
3 -18 19 0
-2 -18 16 7 17 0
-4 7 -18 8 0
-10 -13 18 2 -17 -12 -11 0
18 -1 -2 -5 19 0
19 0
