sat_easy_train/easy_2292_SAT.dimacs
p cnf 132 441
1 -2 -3 0
-1 2 -3 0
1 2 3 0
-1 -2 3 0
-5 -3 0
-5 4 0
3 -4 5 0
-8 -2 -9 0
8 2 -9 0
-8 2 9 0
8 -2 9 0
-10 7 0
-10 9 0
-7 -9 10 0
-11 -10 0
-11 -1 0
10 1 11 0
-12 -6 0
-12 -11 0
6 11 12 0
13 5 0
13 -12 0
-5 12 -13 0
-15 -14 0
-15 9 0
14 -9 15 0
-17 -1 0
-17 16 0
1 -16 17 0
-15 -17 -18 0
15 17 -18 0
-15 17 18 0
15 -17 18 0
19 -9 0
19 -7 0
9 7 -19 0
20 18 0
20 19 0
-18 -19 -20 0
-23 21 0
-23 -22 0
-21 22 23 0
25 -26 0
-25 -26 0
27 24 0
27 26 0
-24 -26 -27 0
28 -27 0
28 -3 0
27 3 -28 0
23 28 -29 0
-23 -28 -29 0
23 -28 29 0
-23 28 29 0
-31 -30 0
-31 -21 0
30 21 31 0
32 9 0
32 -10 0
-9 10 -32 0
33 -16 0
33 32 0
16 -32 -33 0
6 33 -34 0
-6 -33 -34 0
6 -33 34 0
-6 33 34 0
27 9 -35 0
-27 -9 -35 0
27 -9 35 0
-27 9 35 0
-36 -15 0
-36 35 0
15 -35 36 0
34 -36 -37 0
-34 36 -37 0
34 36 37 0
-34 -36 37 0
-31 37 -38 0
31 -37 -38 0
-31 -37 38 0
31 37 38 0
-6 4 -39 0
6 -4 -39 0
-6 -4 39 0
6 4 39 0
40 -14 0
40 39 0
14 -39 -40 0
-41 10 0
-41 -40 0
-10 40 41 0
-42 14 0
-42 41 0
-14 -41 42 0
-25 -39 -43 0
25 39 -43 0
-25 39 43 0
25 -39 43 0
44 11 0
44 43 0
-11 -43 -44 0
-21 44 -45 0
21 -44 -45 0
-21 -44 45 0
21 44 45 0
-46 -42 0
-46 45 0
42 -45 46 0
-38 46 -47 0
38 -46 -47 0
-38 -46 47 0
38 46 47 0
48 29 0
48 -47 0
-29 47 -48 0
20 48 -49 0
-20 -48 -49 0
20 -48 49 0
-20 48 49 0
50 -13 0
50 -49 0
13 49 -50 0
51 -25 0
51 -26 0
25 26 -51 0
52 4 0
52 -6 0
-4 6 -52 0
53 51 0
53 -52 0
-51 52 -53 0
-54 -33 0
-54 -4 0
33 4 54 0
-55 3 0
-55 54 0
-3 -54 55 0
56 53 0
56 55 0
-53 -55 -56 0
14 -57 0
-14 -57 0
57 26 -58 0
-57 -26 -58 0
57 -26 58 0
-57 26 58 0
60 59 0
60 26 0
-59 -26 -60 0
-24 -6 -61 0
24 6 -61 0
-24 6 61 0
24 -6 61 0
21 61 -62 0
-21 -61 -62 0
21 -61 62 0
-21 61 62 0
-63 60 0
-63 -62 0
-60 62 63 0
64 58 0
64 63 0
-58 -63 -64 0
-66 -65 0
-66 -4 0
65 4 66 0
67 7 -68 0
-67 -7 -68 0
67 -7 68 0
-67 7 68 0
69 -66 0
69 -68 0
66 68 -69 0
-70 -9 0
-70 68 0
9 -68 70 0
71 -69 0
71 -70 0
69 70 -71 0
72 -15 0
72 -68 0
15 68 -72 0
-73 -24 0
-73 -72 0
24 72 73 0
74 -71 0
74 -73 0
71 73 -74 0
75 -64 0
75 74 0
64 -74 -75 0
-56 -75 -76 0
56 75 -76 0
-56 75 76 0
56 -75 76 0
-43 3 -77 0
43 -3 -77 0
-43 -3 77 0
43 3 77 0
78 -10 0
78 -34 0
10 34 -78 0
-79 -77 0
-79 -78 0
77 78 79 0
-59 -21 -80 0
59 21 -80 0
-59 21 80 0
59 -21 80 0
-59 -67 -81 0
59 67 -81 0
-59 67 81 0
59 -67 81 0
-80 81 -82 0
80 -81 -82 0
-80 -81 82 0
80 81 82 0
83 3 0
83 -27 0
-3 27 -83 0
-84 82 0
-84 -83 0
-82 83 84 0
85 -15 0
85 22 0
15 -22 -85 0
-86 -84 0
-86 -85 0
84 85 86 0
87 6 0
87 -61 0
-6 61 -87 0
88 -21 0
88 -24 0
21 24 -88 0
65 -88 -89 0
-65 88 -89 0
65 88 89 0
-65 -88 89 0
-90 35 0
-90 2 0
-35 -2 90 0
-91 -89 0
-91 90 0
89 -90 91 0
-92 -91 0
-92 -40 0
91 40 92 0
93 27 0
93 24 0
-27 -24 -93 0
94 33 0
94 16 0
-33 -16 -94 0
95 94 0
95 15 0
-94 -15 -95 0
93 -95 -96 0
-93 95 -96 0
93 95 96 0
-93 -95 96 0
68 21 -97 0
-68 -21 -97 0
68 -21 97 0
-68 21 97 0
-98 96 0
-98 97 0
-96 -97 98 0
2 -24 -99 0
-2 24 -99 0
2 24 99 0
-2 -24 99 0
100 -99 0
100 95 0
99 -95 -100 0
-101 -98 0
-101 100 0
98 -100 101 0
-92 -101 -102 0
92 101 -102 0
-92 101 102 0
92 -101 102 0
-103 87 0
-103 102 0
-87 -102 103 0
-68 3 -104 0
68 -3 -104 0
-68 -3 104 0
68 3 104 0
105 103 0
105 104 0
-103 -104 -105 0
106 -86 0
106 105 0
86 -105 -106 0
-79 106 -107 0
79 -106 -107 0
-79 -106 107 0
79 106 107 0
108 -76 0
108 -107 0
76 107 -108 0
14 3 -109 0
-14 -3 -109 0
14 -3 109 0
-14 3 109 0
110 -11 0
110 -21 0
11 21 -110 0
111 109 0
111 110 0
-109 -110 -111 0
-6 11 -112 0
6 -11 -112 0
-6 -11 112 0
6 11 112 0
113 32 0
113 -25 0
-32 25 -113 0
17 -24 -114 0
-17 24 -114 0
17 24 114 0
-17 -24 114 0
-115 113 0
-115 114 0
-113 -114 115 0
-7 26 -116 0
7 -26 -116 0
-7 -26 116 0
7 26 116 0
-117 4 0
-117 -116 0
-4 116 117 0
-117 -6 -118 0
117 6 -118 0
-117 6 118 0
117 -6 118 0
119 -115 0
119 118 0
115 -118 -119 0
-120 112 0
-120 119 0
-112 -119 120 0
-121 -17 0
-121 25 0
17 -25 121 0
122 -120 0
122 -121 0
120 121 -122 0
123 111 0
123 122 0
-111 -122 -123 0
124 108 0
124 -123 0
-108 123 -124 0
-51 67 -125 0
51 -67 -125 0
-51 -67 125 0
51 67 125 0
125 34 -126 0
-125 -34 -126 0
125 -34 126 0
-125 34 126 0
-127 11 0
-127 -43 0
-11 43 127 0
-128 -126 0
-128 127 0
126 -127 128 0
-129 44 0
-129 16 0
-44 -16 129 0
128 -129 -130 0
-128 129 -130 0
128 129 130 0
-128 -129 130 0
-131 124 0
-131 -130 0
-124 130 131 0
132 50 0
132 131 0
-50 -131 -132 0
-19 17 -102 127 -100 37 0
53 102 61 86 -94 0
-44 -91 3 -39 6 0
-35 -127 0
-17 -16 0
21 96 11 0
-32 74 25 -55 0
-58 -114 0
124 69 13 0
-97 54 37 0
-101 2 -100 0
-16 96 89 122 -21 103 0
-72 93 121 0
-66 52 0
-48 63 112 0
6 71 -38 0
6 41 -33 0
109 -58 -76 -111 0
-109 -114 -89 0
-51 -17 0
46 -30 -83 45 0
40 116 19 -109 68 13 0
-113 31 0
21 -30 -97 0
-98 -96 0
-119 -125 0
80 -38 -43 0
-85 54 66 30 -2 0
32 -130 0
-57 -100 0
-1 39 -92 75 0
71 -37 -43 29 0
62 -107 0
102 -100 -80 110 0
117 88 -55 -23 0
-73 -112 35 78 0
-60 -72 -129 82 -87 0
4 1 110 -105 24 0
131 -33 21 23 112 8 0
108 -28 114 0
-15 83 0
124 38 0
42 70 0
-61 -114 100 0
-110 -51 95 0
-6 21 -101 61 26 0
-33 -46 21 -44 79 0
-88 -17 22 -126 -123 0
-132 90 -51 66 102 0
101 -24 98 -126 94 0
-48 -6 -103 0
91 -40 0
-131 63 -43 39 0
-83 75 50 0
17 131 -11 -82 -62 -25 0
123 63 0
116 -109 -100 83 0
132 0
